\ENCODING=ISO-8859-1
\Problem name: MDNV2

Minimize
 obj: - 40 x21 - 39 x22 - 38 x23 - 37 x24 - 36 x25 - 35 x26 - 34 x27 - 33 x28
      - 32 x29 - 31 x30 - 30 x31 - 29 x32 - 28 x33 - 27 x34 - 26 x35 - 25 x36
      - 24 x37 - 23 x38 - 22 x39 - 21 x40 - 20 x41 - 19 x42 - 18 x43 - 17 x44
      - 16 x45 - 15 x46 - 14 x47 - 13 x48 - 12 x49 - 11 x50
Subject To
 c_u_x52_:              x21 <= 1.0
 c_u_x53_:              x22 + 2 x23 <= 1.0
 c_u_x54_:              x24 <= 1.0
 c_u_x55_:              x25 + 2 x26 <= 1.0
 c_u_x56_:              x27 <= 1.0
 c_u_x57_:              x28 + 2 x29 <= 1.0
 c_u_x58_:              x30 <= 1.0
 c_u_x59_:              x31 + 2 x32 <= 1.0
 c_u_x60_:              x33 <= 1.0
 c_u_x61_:              x34 + 2 x35 <= 1.0
 c_u_x62_:              x36 <= 1.0
 c_u_x63_:              x37 + 2 x38 <= 1.0
 c_u_x64_:              x39 <= 1.0
 c_u_x65_:              x40 + 2 x41 <= 1.0
 c_u_x66_:              x42 <= 1.0
 c_u_x67_:              x43 + 2 x44 <= 1.0
 c_u_x68_:              x45 <= 1.0
 c_u_x69_:              x46 + 2 x47 <= 1.0
 c_u_x70_:              x48 <= 1.0
 c_u_x71_:              x49 + 2 x50 <= 1.0
 c_u_x81_:             x21 <= 0.249051
 c_u_x82_:             x22 <= 0.2415977
 c_u_x83_:             x23 <= 0.2415977
 c_u_x84_:             x24 <= 0.2
 c_u_x85_:             x25 <= 0.2
 c_u_x86_:             x26 <= 0.2
 c_u_x87_:             x27 <= 0.2
 c_u_x88_:             x28 <= 0.2
 c_u_x89_:             x29 <= 0.2
 c_u_x90_:             x30 <= 0.2
 c_u_x91_:             x31 <= 0.2
 c_u_x92_:             x32 <= 0.2
 c_u_x93_:             x33 <= 0.2
 c_u_x94_:             x34 <= 0.2
 c_u_x95_:             x35 <= 0.2
 c_u_x96_:             x36 <= 0.2
 c_u_x97_:             x37 <= 0.2
 c_u_x98_:             x38 <= 0.2
 c_u_x99_:             x39 <= 0.2
 c_u_x100_:            x40 <= 0.2
 c_u_x101_:            x41 <= 0.2
 c_u_x102_:            x42 <= 0.2
 c_u_x103_:            x43 <= 0.2
 c_u_x104_:            x44 <= 0.2
 c_u_x105_:            x45 <= 0.2
 c_u_x106_:            x46 <= 0.2
 c_u_x107_:            x47 <= 0.2
 c_u_x108_:            x48 <= 0.2
 c_u_x109_:            x49 <= 0.2
 c_u_x110_:            x50 <= 0.2
Bounds
 0 <= x21 <= 100
 0 <= x22 <= 100
 0 <= x23 <= 100
 0 <= x24 <= 100
 0 <= x25 <= 100
 0 <= x26 <= 100
 0 <= x27 <= 100
 0 <= x28 <= 100
 0 <= x29 <= 100
 0 <= x30 <= 100
 0 <= x31 <= 100
 0 <= x32 <= 100
 0 <= x33 <= 100
 0 <= x34 <= 100
 0 <= x35 <= 100
 0 <= x36 <= 100
 0 <= x37 <= 100
 0 <= x38 <= 100
 0 <= x39 <= 100
 0 <= x40 <= 100
 0 <= x41 <= 100
 0 <= x42 <= 100
 0 <= x43 <= 100
 0 <= x44 <= 100
 0 <= x45 <= 100
 0 <= x46 <= 100
 0 <= x47 <= 100
 0 <= x48 <= 100
 0 <= x49 <= 100
 0 <= x50 <= 100
End
